c PicoSAT SAT Solver Version 959
c Copyright (c) 2006 - 2014 Armin Biere JKU Linz
c gcc -Wall -Wextra -DNDEBUG -O3 -fno-strict-aliasing
c
c using 2 as default phase
c
c parsing <stdin>
c parsed header 'p cnf 200 850'
c initialized 200 variables
c found 850 non trivial clauses
c
c random number generator seed 0
c 
c  seconds     variables   original    learned     agility
c         level        used      conflicts    limit          MB
c 
c s   0.0   0.0   200   0.0   850     0     0     0   0.0   0.0 
c 
c initial reduction limit 1000 clauses
c 
c +   0.0  19.5   200  88.0   850   100   100  1100   9.9   0.0 
c R   0.0  19.5   200  88.0   850   100   100  1100   9.9   0.0 
c +   0.0  16.5   200  95.5   850   221   221  1210  20.2   0.1 
c +   0.0  14.8   200  97.5   850   367   367  1331  27.8   0.1 
c N   0.0  14.6   200  97.5   850   400   400  1331  28.5   0.1 
c +   0.0  14.0   200  99.0   850   543   543  1464  30.1   0.1 
c +   0.0  13.3   200  99.5   850   755   755  1610  30.8   0.1 
c +   0.0  12.5   200 100.0   850  1011  1011  1771  31.6   0.1 
c N   0.0  12.2   200 100.0   850  1202  1202  1771  32.3   0.1 
c +   0.0  11.9   200 100.0   850  1320  1320  1948  32.8   0.1 
c +   0.0  11.6   200 100.0   850  1693  1693  2142  31.3   0.2 
c +   0.0  11.3   200 100.0   850  2144  2144  2356  31.1   0.2 
c +   0.0  10.8   200 100.0   850  2689  1508  2591  32.9   0.2 
c N   0.0  10.6   200 100.0   850  3206  2025  2591  31.5   0.2 
c +   0.0  10.5   200 100.0   850  3348  2167  2850  31.9   0.2 
c +   0.0  10.1   200 100.0   850  4145  1536  3135  30.8   0.2 
c +   0.0  10.0   200 100.0   850  5109  2500  3448  30.3   0.2 
c +   0.1   9.7   200 100.0   850  6275  1936  3792  30.4   0.2 
c +   0.1   9.4   200 100.0   850  7685  3344  4171  32.2   0.2 
c 1   0.1   9.4   200 100.0   850  7835  3493  4171  30.9   0.3 
c 
c  seconds     variables   original    learned     agility
c         level        used      conflicts    limit          MB
c 
s SATISFIABLE
v 1 2 3 4 5 6 7 -8 9 10 -11 12 13 -14 -15 16 -17 -18 -19 20 21 -22 -23 24 -25
v -26 27 -28 29 30 31 32 33 34 -35 -36 -37 -38 39 40 -41 42 -43 -44 45 -46 47
v 48 49 -50 -51 -52 53 54 -55 -56 -57 -58 -59 -60 -61 62 63 64 65 66 67 68 69
v -70 -71 72 73 74 -75 -76 -77 78 -79 -80 81 -82 83 84 85 -86 -87 -88 -89 -90
v -91 92 93 -94 95 -96 97 98 -99 -100 101 -102 -103 -104 -105 106 -107 108 -109
v -110 111 112 -113 114 -115 116 117 -118 -119 -120 121 122 -123 124 125 126
v 127 128 -129 130 -131 -132 -133 -134 135 136 -137 -138 -139 -140 -141 142
v -143 144 145 -146 147 -148 -149 150 151 -152 -153 154 155 156 -157 -158 159
v 160 -161 162 163 -164 165 -166 -167 -168 169 -170 171 -172 173 174 -175 -176
v -177 -178 -179 -180 -181 -182 183 184 185 -186 -187 188 -189 190 191 -192
v -193 194 195 196 -197 -198 199 -200 0
c
c 0 iterations
c 2 restarts
c 0 failed literals
c 7835 conflicts
c 9299 decisions
c 0 fixed variables
c 79551 learned literals
c 27.0% deleted literals
c 379211 propagations
c 2334420 visits
c 100.0% variables used
c 0.1 seconds in library
c 5.0 megaprops/second
c 30.7 megavisits/second
c probing 0.0 seconds 1%
c 1 simplifications
c 3 reductions
c 0.3 MB recycled
c 0.3 MB maximally allocated
c 0.076000 seconds total run time
